/*********************************************
 * OPL 22.1.1.0 Data
 * Author: Valentina
 * Creation Date: 30/05/2023 at 16:26:40
 *********************************************/

 n = 4; 
 InputBoard = [
 	[-1, -1, 2, -1], 
 	[-1, -1, -1, 6], 
 	[1, -1, -1, -1], 
 	[-1, 5, -1, -1]
 ];